%%%mzn-stat: initTime=0.004574244
%%%mzn-stat: objective=344
%%%mzn-stat: nodes=1180
%%%mzn-stat: restarts=0
%%%mzn-stat: peakDepth=157
%%%mzn-stat: solveTime=0.068878992
%%%mzn-stat: variables=433
%%%mzn-stat: propagators=1490
%%%mzn-stat: failures=638
%%%mzn-stat: propagations=189668
%%%mzn-stat: nogoods=638
%%%mzn-stat: AverageConflictSize=2.658307210031348
%%%mzn-stat: NumUnitNogoodsLearned=343
%%%mzn-stat: AverageLearnedNogoodLength=3.6630094043887147
%%%mzn-stat: AverageBacktrackAmount=0
%%%mzn-stat: AverageLbd=2.41692789968652
%%%mzn-stat-end
maxleg = 344;
succ = array1d(1..50,[6, 29, 7, 50, 14, 27, 39, 2, 19, 11, 20, 26, 9, 16, 31, 45, 30, 12, 46, 32, 15, 28, 5, 47, 35, 44, 42, 23, 49, 38, 1, 18, 3, 10, 21, 24, 8, 25, 13, 37, 36, 41, 34, 22, 17, 43, 4, 40, 33, 48]);
% time elapsed: 1.61 s
----------
==========
% time elapsed: 1.61 s
%%%mzn-stat: initTime=0.004574244
%%%mzn-stat: objective=344
%%%mzn-stat: nodes=1180
%%%mzn-stat: restarts=0
%%%mzn-stat: peakDepth=157
%%%mzn-stat: solveTime=0.06888286
%%%mzn-stat: variables=433
%%%mzn-stat: propagators=1490
%%%mzn-stat: failures=638
%%%mzn-stat: propagations=189668
%%%mzn-stat: nogoods=638
%%%mzn-stat: AverageConflictSize=2.658307210031348
%%%mzn-stat: NumUnitNogoodsLearned=343
%%%mzn-stat: AverageLearnedNogoodLength=3.6630094043887147
%%%mzn-stat: AverageBacktrackAmount=0
%%%mzn-stat: AverageLbd=2.41692789968652
%%%mzn-stat-end
